Version identifier: 20.1.0.0 | 2020-11-10 | 9bedb6d68
Tried aggregator 2 times.
MIP Presolve eliminated 1693 rows and 906 columns.
MIP Presolve modified 3474 coefficients.
Aggregator did 175 substitutions.
Reduced MIP has 1538 rows, 1326 columns, and 4871 nonzeros.
Reduced MIP has 404 binaries, 922 generals, 0 SOSs, and 0 indicators.
Presolve time = 0.02 sec. (7.79 ticks)
Found incumbent of value 66.000000 after 0.03 sec. (13.37 ticks)
Probing fixed 40 vars, tightened 305 bounds.
Probing time = 0.00 sec. (1.83 ticks)
Tried aggregator 2 times.
Detecting symmetries...
MIP Presolve eliminated 586 rows and 42 columns.
MIP Presolve modified 117 coefficients.
Aggregator did 16 substitutions.
Reduced MIP has 936 rows, 1268 columns, and 3053 nonzeros.
Reduced MIP has 500 binaries, 768 generals, 0 SOSs, and 0 indicators.
Presolve time = 0.01 sec. (4.69 ticks)
Probing time = 0.00 sec. (0.24 ticks)
Clique table members: 41.
MIP emphasis: balance optimality and feasibility.
MIP search method: dynamic search.
Parallel mode: deterministic, using up to 24 threads.
Root relaxation solution time = 0.01 sec. (3.43 ticks)

        Nodes                                         Cuts/
   Node  Left     Objective  IInf  Best Integer    Best Bound    ItCnt     Gap

*     0+    0                           66.0000        0.0000           100.00%
*     0+    0                           30.0000        0.0000           100.00%
      0     0        0.0000    59       30.0000        0.0000      292  100.00%
      0     0        1.1429   131       30.0000     Cuts: 141      523   96.19%
      0     0        2.0000    67       30.0000      Cuts: 88      662   93.33%
*     0+    0                           17.0000        2.0000            88.24%
      0     0        2.0000   315       17.0000      Cuts: 24      754   88.24%
*     0+    0                           12.0000        2.0000            83.33%
      0     0        cutoff             12.0000       12.0000      767    0.00%
Elapsed time = 0.24 sec. (104.25 ticks, tree = 0.01 MB, solutions = 4)

Implied bound cuts applied:  17
Flow cuts applied:  4
Mixed integer rounding cuts applied:  19
Zero-half cuts applied:  41
Lift and project cuts applied:  3
Gomory fractional cuts applied:  26

Root node processing (before b&c):
  Real time             =    0.24 sec. (104.38 ticks)
Parallel b&c, 24 threads:
  Real time             =    0.00 sec. (0.00 ticks)
  Sync time (average)   =    0.00 sec.
  Wait time (average)   =    0.00 sec.
                          ------------
Total (root+branch&cut) =    0.24 sec. (104.38 ticks)

Solution status = Optimal
Solution LB = 12
Solution UB = 12
Runtime = 0.24611 seconds
	Command being timed: "/home/min/git_repos/CS598MEBProject/CNT-ILP/build/cnt -s 2 ./output/k6_n40/simC_c1_k6_n40_u3_s1_del04.input-left.cnp"
	User time (seconds): 1.87
	System time (seconds): 0.12
	Percent of CPU this job got: 683%
	Elapsed (wall clock) time (h:mm:ss or m:ss): 0:00.29
	Average shared text size (kbytes): 0
	Average unshared data size (kbytes): 0
	Average stack size (kbytes): 0
	Average total size (kbytes): 0
	Maximum resident set size (kbytes): 86276
	Average resident set size (kbytes): 0
	Major (requiring I/O) page faults: 0
	Minor (reclaiming a frame) page faults: 18502
	Voluntary context switches: 4471
	Involuntary context switches: 189
	Swaps: 0
	File system inputs: 0
	File system outputs: 24
	Socket messages sent: 0
	Socket messages received: 0
	Signals delivered: 0
	Page size (bytes): 4096
	Exit status: 0
